experiment/data/lkh-res/Vrp-Set-CMT-n151/Vrp-Set-CMT-n151-lkh/0.lkh1.log
PARAMETER_FILE = baseline_results/cvrp_lkh/Vrp-Set-CMT-n151/Vrp-Set-CMT-n151-lkh/0.lkh1.par
Reading PROBLEM_FILE: "baseline_results/cvrp_lkh/Vrp-Set-CMT-n151/Vrp-Set-CMT-n151-lkh/0.lkh1.vrp" ... done
ASCENT_CANDIDATES = 50
BACKBONE_TRIALS = 0
BACKTRACKING = NO
# BWTSP =
# CANDIDATE_FILE =
CANDIDATE_SET_TYPE = ALPHA
# DISTANCE =
DEPOT = 1
# EDGE_FILE =
EXCESS = 0.00662252
EXTERNAL_SALESMEN = 0
EXTRA_CANDIDATES = 0 
EXTRA_CANDIDATE_SET_TYPE = QUADRANT
GAIN23 = NO
GAIN_CRITERION = YES
INITIAL_PERIOD = 100
INITIAL_STEP_SIZE = 1
INITIAL_TOUR_ALGORITHM = WALK
# INITIAL_TOUR_FILE = 
INITIAL_TOUR_FRACTION = 1.000
# INPUT_TOUR_FILE = 
KICK_TYPE = 4
KICKS = 1
# MAX_BREADTH =
MAKESPAN = NO
MAX_CANDIDATES = 5 
MAX_SWAPS = 0
MAX_TRIALS = 10000
# MERGE_TOUR_FILE =
MOVE_TYPE = 5 SPECIAL
MTSP_MIN_SIZE = 1
MTSP_MAX_SIZE = 150
# MTSP_SOLUTION_FILE = 
# NONSEQUENTIAL_MOVE_TYPE = 5
# OPTIMUM =
OUTPUT_TOUR_FILE = baseline_results/cvrp_lkh/Vrp-Set-CMT-n151/Vrp-Set-CMT-n151-lkh/0.lkh1.tour
PATCHING_A = 1 
PATCHING_C = 0 
# PI_FILE = 
POPMUSIC_INITIAL_TOUR = NO
POPMUSIC_MAX_NEIGHBORS = 5
POPMUSIC_SAMPLE_SIZE = 10
POPMUSIC_SOLUTIONS = 50
POPMUSIC_TRIALS = 1
POPULATION_SIZE = 10
PRECISION = 100
PROBLEM_FILE = baseline_results/cvrp_lkh/Vrp-Set-CMT-n151/Vrp-Set-CMT-n151-lkh/0.lkh1.vrp
RECOMBINATION = IPT
RESTRICTED_SEARCH = YES
RUNS = 1
SALESMEN = 12
SCALE = 1
SEED = 1234
# SINTEF_SOLUTION_FILE = 
STOP_AT_OPTIMUM = YES
SUBGRADIENT = YES
# SUBPROBLEM_SIZE =
# SUBPROBLEM_TOUR_FILE = 
SUBSEQUENT_MOVE_TYPE = 5 SPECIAL
SUBSEQUENT_PATCHING = YES
# TIME_LIMIT =
# TOTAL_TIME_LIMIT =
# TOUR_FILE = 
TRACE_LEVEL = 1
VEHICLES = 12

Lower bound = 82967.7, Ascent time = 0.05 sec.
Cand.min = 4, Cand.avg = 5.0, Cand.max = 5
Preprocessing time = 0.05 sec.
* 1: Cost = 0_110120, Time = 0.04 sec. 
Writing OUTPUT_TOUR_FILE: "baseline_results/cvrp_lkh/Vrp-Set-CMT-n151/Vrp-Set-CMT-n151-lkh/0.lkh1.tour" ... done
* 3: Cost = 0_109729, Time = 0.05 sec. 
Writing OUTPUT_TOUR_FILE: "baseline_results/cvrp_lkh/Vrp-Set-CMT-n151/Vrp-Set-CMT-n151-lkh/0.lkh1.tour" ... done
* 4: Cost = 0_109423, Time = 0.05 sec. 
Writing OUTPUT_TOUR_FILE: "baseline_results/cvrp_lkh/Vrp-Set-CMT-n151/Vrp-Set-CMT-n151-lkh/0.lkh1.tour" ... done
* 6: Cost = 0_108001, Time = 0.07 sec. 
Writing OUTPUT_TOUR_FILE: "baseline_results/cvrp_lkh/Vrp-Set-CMT-n151/Vrp-Set-CMT-n151-lkh/0.lkh1.tour" ... done
* 9: Cost = 0_107405, Time = 0.08 sec. 
Writing OUTPUT_TOUR_FILE: "baseline_results/cvrp_lkh/Vrp-Set-CMT-n151/Vrp-Set-CMT-n151-lkh/0.lkh1.tour" ... done
* 12: Cost = 0_107164, Time = 0.09 sec. 
Writing OUTPUT_TOUR_FILE: "baseline_results/cvrp_lkh/Vrp-Set-CMT-n151/Vrp-Set-CMT-n151-lkh/0.lkh1.tour" ... done
* 14: Cost = 0_107008, Time = 0.10 sec. 
Writing OUTPUT_TOUR_FILE: "baseline_results/cvrp_lkh/Vrp-Set-CMT-n151/Vrp-Set-CMT-n151-lkh/0.lkh1.tour" ... done
* 15: Cost = 0_106444, Time = 0.10 sec. 
Writing OUTPUT_TOUR_FILE: "baseline_results/cvrp_lkh/Vrp-Set-CMT-n151/Vrp-Set-CMT-n151-lkh/0.lkh1.tour" ... done
* 19: Cost = 0_106330, Time = 0.11 sec. 
Writing OUTPUT_TOUR_FILE: "baseline_results/cvrp_lkh/Vrp-Set-CMT-n151/Vrp-Set-CMT-n151-lkh/0.lkh1.tour" ... done
* 23: Cost = 0_106071, Time = 0.11 sec. 
Writing OUTPUT_TOUR_FILE: "baseline_results/cvrp_lkh/Vrp-Set-CMT-n151/Vrp-Set-CMT-n151-lkh/0.lkh1.tour" ... done
* 26: Cost = 0_105727, Time = 0.12 sec. 
Writing OUTPUT_TOUR_FILE: "baseline_results/cvrp_lkh/Vrp-Set-CMT-n151/Vrp-Set-CMT-n151-lkh/0.lkh1.tour" ... done
* 27: Cost = 0_105427, Time = 0.12 sec. 
Writing OUTPUT_TOUR_FILE: "baseline_results/cvrp_lkh/Vrp-Set-CMT-n151/Vrp-Set-CMT-n151-lkh/0.lkh1.tour" ... done
* 29: Cost = 0_105301, Time = 0.13 sec. 
Writing OUTPUT_TOUR_FILE: "baseline_results/cvrp_lkh/Vrp-Set-CMT-n151/Vrp-Set-CMT-n151-lkh/0.lkh1.tour" ... done
* 62: Cost = 0_104835, Time = 0.17 sec. 
Writing OUTPUT_TOUR_FILE: "baseline_results/cvrp_lkh/Vrp-Set-CMT-n151/Vrp-Set-CMT-n151-lkh/0.lkh1.tour" ... done
* 70: Cost = 0_104818, Time = 0.18 sec. 
Writing OUTPUT_TOUR_FILE: "baseline_results/cvrp_lkh/Vrp-Set-CMT-n151/Vrp-Set-CMT-n151-lkh/0.lkh1.tour" ... done
* 185: Cost = 0_104551, Time = 0.38 sec. 
Writing OUTPUT_TOUR_FILE: "baseline_results/cvrp_lkh/Vrp-Set-CMT-n151/Vrp-Set-CMT-n151-lkh/0.lkh1.tour" ... done
* 439: Cost = 0_104422, Time = 0.94 sec. 
Writing OUTPUT_TOUR_FILE: "baseline_results/cvrp_lkh/Vrp-Set-CMT-n151/Vrp-Set-CMT-n151-lkh/0.lkh1.tour" ... done
* 440: Cost = 0_104370, Time = 0.94 sec. 
Writing OUTPUT_TOUR_FILE: "baseline_results/cvrp_lkh/Vrp-Set-CMT-n151/Vrp-Set-CMT-n151-lkh/0.lkh1.tour" ... done
* 501: Cost = 0_104284, Time = 1.05 sec. 
Writing OUTPUT_TOUR_FILE: "baseline_results/cvrp_lkh/Vrp-Set-CMT-n151/Vrp-Set-CMT-n151-lkh/0.lkh1.tour" ... done
* 543: Cost = 0_104032, Time = 1.13 sec. 
Writing OUTPUT_TOUR_FILE: "baseline_results/cvrp_lkh/Vrp-Set-CMT-n151/Vrp-Set-CMT-n151-lkh/0.lkh1.tour" ... done
* 584: Cost = 0_104013, Time = 1.21 sec. 
Writing OUTPUT_TOUR_FILE: "baseline_results/cvrp_lkh/Vrp-Set-CMT-n151/Vrp-Set-CMT-n151-lkh/0.lkh1.tour" ... done
* 701: Cost = 0_104011, Time = 1.46 sec. 
Writing OUTPUT_TOUR_FILE: "baseline_results/cvrp_lkh/Vrp-Set-CMT-n151/Vrp-Set-CMT-n151-lkh/0.lkh1.tour" ... done
* 771: Cost = 0_103884, Time = 1.60 sec. 
Writing OUTPUT_TOUR_FILE: "baseline_results/cvrp_lkh/Vrp-Set-CMT-n151/Vrp-Set-CMT-n151-lkh/0.lkh1.tour" ... done
* 803: Cost = 0_103872, Time = 1.67 sec. 
Writing OUTPUT_TOUR_FILE: "baseline_results/cvrp_lkh/Vrp-Set-CMT-n151/Vrp-Set-CMT-n151-lkh/0.lkh1.tour" ... done
* 854: Cost = 0_103561, Time = 1.77 sec. 
Writing OUTPUT_TOUR_FILE: "baseline_results/cvrp_lkh/Vrp-Set-CMT-n151/Vrp-Set-CMT-n151-lkh/0.lkh1.tour" ... done
* 967: Cost = 0_103535, Time = 2.03 sec. 
Writing OUTPUT_TOUR_FILE: "baseline_results/cvrp_lkh/Vrp-Set-CMT-n151/Vrp-Set-CMT-n151-lkh/0.lkh1.tour" ... done
* 1021: Cost = 0_103401, Time = 2.12 sec. 
Writing OUTPUT_TOUR_FILE: "baseline_results/cvrp_lkh/Vrp-Set-CMT-n151/Vrp-Set-CMT-n151-lkh/0.lkh1.tour" ... done
* 1098: Cost = 0_103314, Time = 2.26 sec. 
Writing OUTPUT_TOUR_FILE: "baseline_results/cvrp_lkh/Vrp-Set-CMT-n151/Vrp-Set-CMT-n151-lkh/0.lkh1.tour" ... done
* 1505: Cost = 0_103108, Time = 3.19 sec. 
Writing OUTPUT_TOUR_FILE: "baseline_results/cvrp_lkh/Vrp-Set-CMT-n151/Vrp-Set-CMT-n151-lkh/0.lkh1.tour" ... done
* 1560: Cost = 0_103105, Time = 3.35 sec. 
Writing OUTPUT_TOUR_FILE: "baseline_results/cvrp_lkh/Vrp-Set-CMT-n151/Vrp-Set-CMT-n151-lkh/0.lkh1.tour" ... done
* 6500: Cost = 0_103050, Time = 15.38 sec. 
Writing OUTPUT_TOUR_FILE: "baseline_results/cvrp_lkh/Vrp-Set-CMT-n151/Vrp-Set-CMT-n151-lkh/0.lkh1.tour" ... done
* 6689: Cost = 0_103011, Time = 15.95 sec. 
Writing OUTPUT_TOUR_FILE: "baseline_results/cvrp_lkh/Vrp-Set-CMT-n151/Vrp-Set-CMT-n151-lkh/0.lkh1.tour" ... done
* 6715: Cost = 0_102974, Time = 16.02 sec. 
Writing OUTPUT_TOUR_FILE: "baseline_results/cvrp_lkh/Vrp-Set-CMT-n151/Vrp-Set-CMT-n151-lkh/0.lkh1.tour" ... done
Population:
  1: 0_102974
Run 1: Cost = 0_102974, Time = 26.00 sec. 

Successes/Runs = 0/1 
Cost.min = 102974, Cost.avg = 102974.00, Cost.max = 102974
Gap.min = 0.0000%, Gap.avg = 0.0000%, Gap.max = 0.0000%
Penalty.min = 0, Penalty.avg = 0.00, Penalty.max = 0
Trials.min = 10000, Trials.avg = 10000.0, Trials.max = 10000
Time.min = 26.00 sec., Time.avg = 26.00 sec., Time.max = 26.00 sec.
Time.total = 26.05 sec.
  Size.min = 3, Size.max = 16, Penalty = 0
  Cost.min = 2238, Cost.max = 12061, Cost.sum = 102974
Best CVRP solution:
  Cost = 0_102974

