experiment/data/lkh-res/Vrp-Set-CMT-n151/Vrp-Set-CMT-n151-lkh/0.lkh1.tour
NAME : 0.102974.tour
COMMENT : Length = 102974
COMMENT : Found by LKH-3 [Keld Helsgaun] Tue Apr  9 01:06:06 2024
TYPE : TOUR
DIMENSION : 162
TOUR_SECTION
1
58
24
70
98
87
44
100
115
62
8
113
49
139
152
127
128
54
130
30
129
85
36
86
37
116
122
117
71
23
120
160
39
63
10
105
35
75
80
22
51
131
119
17
79
154
13
109
104
162
77
50
31
106
76
40
90
118
74
107
55
11
91
158
18
138
93
43
65
20
95
42
67
112
5
150
57
48
161
33
2
121
81
29
32
83
141
114
27
9
61
82
28
47
153
147
110
144
136
142
151
149
88
143
148
146
145
156
6
72
124
123
125
126
34
73
92
46
16
53
38
64
157
140
69
134
15
59
26
96
97
25
99
133
7
103
155
111
19
56
135
68
14
137
41
89
94
66
108
45
159
12
101
3
84
132
21
60
4
102
52
78
-1
EOF
